S  C  H                                 
    1.000000000000000     
    11.7625588574021318    0.0000000000000000    0.0407233530183480
     0.0000000000000000    5.8623919395658115    0.0000000000000000
    -2.1571997409806052    0.0000000000000000    7.5142492911444885
  S               C               H             
     4    28    16
Direct
  0.4202614621647312  0.2085837317717849  0.8623007981226877
  0.5797385378352804  0.7085837317717752  0.6376992018773123
  0.5797385378352804  0.7914162682282248  0.1376992018773136
  0.4202614621647312  0.2914162682282155  0.3623007981226892
  0.5252786665461042  0.4036543734119693  0.9732464533152091
  0.4747213334539042  0.9036543734119689  0.5267535466847980
  0.4747213334539042  0.5963456265880311  0.0267535466847971
  0.5252786665461042  0.0963456265880329  0.4732464533152116
  0.3064073746945596  0.3830820944569427  0.8895827051767395
  0.6935926253054189  0.8830820944569461  0.6104172948232605
  0.6935926253054189  0.6169179055430539  0.1104172948232559
  0.3064073746945596  0.1169179055430561  0.3895827051767436
  0.3483746981684253  0.5901349213498559  0.9816676044799754
  0.6516253018315754  0.0901349213498658  0.5183323955200246
  0.6516253018315754  0.4098650786501317  0.0183323955200326
  0.3483746981684253  0.9098650786501441  0.4816676044799679
  0.2661206311693643  0.7453983445917400  0.0157920087734736
  0.7338793688306370  0.2453983445917506  0.4842079912265278
  0.7338793688306370  0.2546016554082517  0.9842079912265240
  0.2661206311693643  0.7546016554082600  0.5157920087734760
  0.1462523734928061  0.6941503680033704  0.9595644784972052
  0.8537476265071952  0.1941503680033725  0.5404355215027948
  0.8537476265071952  0.3058496319966317  0.0404355215027858
  0.1462523734928061  0.8058496319966296  0.4595644784972191
  0.1062145561561503  0.4902694482902025  0.8676733357211757
  0.8937854438438374  0.9902694482902021  0.6323266642788243
  0.8937854438438374  0.5097305517097979  0.1323266642788237
  0.1062145561561503  0.0097305517097972  0.3676733357211757
  0.1856678077862242  0.3335914712981146  0.8315321210422585
  0.8143321922137731  0.8335914712981078  0.6684678789577415
  0.8143321922137731  0.6664085287018922  0.1684678789577353
  0.1856678077862242  0.1664085287018850  0.3315321210422669
  0.2964257303272756  0.9036144996593978  0.0865998668958812
  0.7035742696727268  0.4036144996593947  0.4134001331041189
  0.7035742696727268  0.0963855003406011  0.9134001331041262
  0.2964257303272756  0.5963855003406022  0.5865998668958738
  0.0827349632935103  0.8134077055763774  0.9882382697449742
  0.9172650367064999  0.3134077055763799  0.5117617302550258
  0.9172650367064999  0.1865922944236251  0.0117617302550280
  0.0827349632935103  0.6865922944236226  0.4882382697449669
  0.0119632165593511  0.4525136218633253  0.8251226840220077
  0.9880367834406460  0.9525136218633380  0.6748773159779923
  0.9880367834406460  0.5474863781366620  0.1748773159779959
  0.0119632165593511  0.0474863781366737  0.3251226840219992
  0.1552571510218973  0.1756239590875166  0.7601548403909284
  0.8447428489781118  0.6756239590875101  0.7398451596090716
  0.8447428489781118  0.8243760409124899  0.2398451596090622
  0.1552571510218973  0.3243760409124803  0.2601548403909416
 
  0.00000000E+00  0.00000000E+00  0.00000000E+00
  0.00000000E+00  0.00000000E+00  0.00000000E+00
  0.00000000E+00  0.00000000E+00  0.00000000E+00
  0.00000000E+00  0.00000000E+00  0.00000000E+00
  0.00000000E+00  0.00000000E+00  0.00000000E+00
  0.00000000E+00  0.00000000E+00  0.00000000E+00
  0.00000000E+00  0.00000000E+00  0.00000000E+00
  0.00000000E+00  0.00000000E+00  0.00000000E+00
  0.00000000E+00  0.00000000E+00  0.00000000E+00
  0.00000000E+00  0.00000000E+00  0.00000000E+00
  0.00000000E+00  0.00000000E+00  0.00000000E+00
  0.00000000E+00  0.00000000E+00  0.00000000E+00
  0.00000000E+00  0.00000000E+00  0.00000000E+00
  0.00000000E+00  0.00000000E+00  0.00000000E+00
  0.00000000E+00  0.00000000E+00  0.00000000E+00
  0.00000000E+00  0.00000000E+00  0.00000000E+00
  0.00000000E+00  0.00000000E+00  0.00000000E+00
  0.00000000E+00  0.00000000E+00  0.00000000E+00
  0.00000000E+00  0.00000000E+00  0.00000000E+00
  0.00000000E+00  0.00000000E+00  0.00000000E+00
  0.00000000E+00  0.00000000E+00  0.00000000E+00
  0.00000000E+00  0.00000000E+00  0.00000000E+00
  0.00000000E+00  0.00000000E+00  0.00000000E+00
  0.00000000E+00  0.00000000E+00  0.00000000E+00
  0.00000000E+00  0.00000000E+00  0.00000000E+00
  0.00000000E+00  0.00000000E+00  0.00000000E+00
  0.00000000E+00  0.00000000E+00  0.00000000E+00
  0.00000000E+00  0.00000000E+00  0.00000000E+00
  0.00000000E+00  0.00000000E+00  0.00000000E+00
  0.00000000E+00  0.00000000E+00  0.00000000E+00
  0.00000000E+00  0.00000000E+00  0.00000000E+00
  0.00000000E+00  0.00000000E+00  0.00000000E+00
  0.00000000E+00  0.00000000E+00  0.00000000E+00
  0.00000000E+00  0.00000000E+00  0.00000000E+00
  0.00000000E+00  0.00000000E+00  0.00000000E+00
  0.00000000E+00  0.00000000E+00  0.00000000E+00
  0.00000000E+00  0.00000000E+00  0.00000000E+00
  0.00000000E+00  0.00000000E+00  0.00000000E+00
  0.00000000E+00  0.00000000E+00  0.00000000E+00
  0.00000000E+00  0.00000000E+00  0.00000000E+00
  0.00000000E+00  0.00000000E+00  0.00000000E+00
  0.00000000E+00  0.00000000E+00  0.00000000E+00
  0.00000000E+00  0.00000000E+00  0.00000000E+00
  0.00000000E+00  0.00000000E+00  0.00000000E+00
  0.00000000E+00  0.00000000E+00  0.00000000E+00
  0.00000000E+00  0.00000000E+00  0.00000000E+00
  0.00000000E+00  0.00000000E+00  0.00000000E+00
  0.00000000E+00  0.00000000E+00  0.00000000E+00
