C  H                                    
    1.000000000000000     
     6.2373539290764191    0.0205774760334455   -0.0673989344364054
     0.7560745518982075    7.5469101081166370   -0.0113409504600355
     0.3889697544169413    3.1789669344890989   13.8690074915556121
  C               H             
    44    28
Direct
  0.2039510621488659  0.3984790125767716  0.0176277373549775
  0.7960489378511304  0.6015209874232199  0.9823722626450205
  0.6572298867613940  0.0995583868689738  0.9433653104449303
  0.3427701132385971  0.9004416131310233  0.0566346895550731
  0.3271974275614683  0.5553134358506399  0.8584337816319714
  0.6728025724385295  0.4446865641493602  0.1415662183680315
  0.1668395083123535  0.5260322649473401  0.9299703792966600
  0.8331604916876372  0.4739677350526681  0.0700296207033321
  0.6844041574503305  0.0416942537501585  0.0436502453466098
  0.3155958425496719  0.9583057462498534  0.9563497546533860
  0.0437311794833440  0.3693672458131524  0.0883335561925344
  0.9562688205166561  0.6306327541868422  0.9116664438074550
  0.5598543616919337  0.8845060596920612  0.2026332320063798
  0.4401456383080719  0.1154939403079344  0.7973667679936105
  0.7804988921360712  0.2564092951130694  0.7851549101481627
  0.2195011078639363  0.7435907048869217  0.2148450898518381
  0.9213505491580845  0.2150318499183438  0.2471664757336342
  0.0786494508419130  0.7849681500816500  0.7528335242663581
  0.4093969129226689  0.7862665409695103  0.2597731037315203
  0.5906030870773346  0.2137334590304860  0.7402268962684757
  0.2886314680563340  0.6806857331416838  0.7711010934488175
  0.7113685319436716  0.3193142668583087  0.2288989065511811
  0.5332200774756544  0.9432405314580121  0.1017145298099084
  0.4667799225243467  0.0567594685419891  0.8982854701900888
  0.0804496161995741  0.2418470664027598  0.1768781387468950
  0.9195503838004229  0.7581529335972402  0.8231218612531059
  0.8087309895605527  0.1988209273052219  0.8846542496198931
  0.1912690104394486  0.8011790726947902  0.1153457503800994
  0.9322202432094918  0.3584598720160487  0.7254276470143799
  0.0677797567905058  0.6415401279839467  0.2745723529856260
  0.9578451784175330  0.0878634254753275  0.3375489771302705
  0.0421548215824704  0.9121365745246677  0.6624510228697426
  0.4495272699534563  0.7090362080863923  0.6979328479114851
  0.5504727300465416  0.2909637919136027  0.3020671520885172
  0.9006179132434201  0.4141763165503171  0.6277305387134289
  0.0993820867565823  0.5858236834496776  0.3722694612865695
  0.7986006093989716  0.0652453155410803  0.4056035305771434
  0.2013993906010315  0.9347546844589191  0.5943964694228525
  0.2844626817624001  0.6292893523536048  0.4166209904368406
  0.7155373182375995  0.3707106476463901  0.5833790095631683
  0.4350486687942295  0.7256147198671015  0.3619791736853890
  0.5649513312057745  0.2743852801329065  0.6380208263146101
  0.4071293177493351  0.8318340738438161  0.6122857703263684
  0.5928706822506634  0.1681659261561883  0.3877142296736318
  0.3613465553473028  0.3200140004696819  0.0311783547325194
  0.6386534446527068  0.6799859995303260  0.9688216452674746
  0.4845998454823872  0.4768302660688415  0.8719185594795534
  0.5154001545176188  0.5231697339311566  0.1280814405204444
  0.8266434608739375  0.0739807388334926  0.0773810662964887
  0.1733565391260742  0.9260192611665075  0.9226189337035122
  0.7017690033529533  0.9170240189302883  0.2364973255268775
  0.2982309966470474  0.0829759810697136  0.7635026744731219
  0.2378620010752660  0.1634304902152273  0.1905724618601357
  0.7621379989247409  0.8365695097847735  0.8094275381398716
  0.9510684616574648  0.2311182078593050  0.9183177397591034
  0.0489315383425251  0.7688817921406932  0.0816822602409041
  0.0735948687479145  0.3915562648985438  0.7593235457528132
  0.9264051312520829  0.6084437351014723  0.2406764542471908
  0.1147766602881983  0.0085639020632507  0.3509913422080810
  0.8852233397117872  0.9914360979367473  0.6490086577919211
  0.6065586342194963  0.6303258008304922  0.7115321814329401
  0.3934413657805044  0.3696741991695127  0.2884678185670750
  0.0168165523742675  0.4939849626004303  0.5837952708377308
  0.9831834476257242  0.5060150373995693  0.4162047291622633
  0.8294045231108218  0.9677661252090565  0.4741183082958920
  0.1705954768891842  0.0322338747909443  0.5258816917041097
  0.3074097740870060  0.5848447395713345  0.4944257393180529
  0.6925902259129892  0.4151552604286662  0.5055742606819285
  0.5779668077484021  0.7579314383173400  0.3952366667903802
  0.4220331922516084  0.2420685616826645  0.6047633332096258
  0.5310709125941543  0.8509443897545560  0.5570410548435234
  0.4689290874058484  0.1490556102454451  0.4429589451564770
 
  0.00000000E+00  0.00000000E+00  0.00000000E+00
  0.00000000E+00  0.00000000E+00  0.00000000E+00
  0.00000000E+00  0.00000000E+00  0.00000000E+00
  0.00000000E+00  0.00000000E+00  0.00000000E+00
  0.00000000E+00  0.00000000E+00  0.00000000E+00
  0.00000000E+00  0.00000000E+00  0.00000000E+00
  0.00000000E+00  0.00000000E+00  0.00000000E+00
  0.00000000E+00  0.00000000E+00  0.00000000E+00
  0.00000000E+00  0.00000000E+00  0.00000000E+00
  0.00000000E+00  0.00000000E+00  0.00000000E+00
  0.00000000E+00  0.00000000E+00  0.00000000E+00
  0.00000000E+00  0.00000000E+00  0.00000000E+00
  0.00000000E+00  0.00000000E+00  0.00000000E+00
  0.00000000E+00  0.00000000E+00  0.00000000E+00
  0.00000000E+00  0.00000000E+00  0.00000000E+00
  0.00000000E+00  0.00000000E+00  0.00000000E+00
  0.00000000E+00  0.00000000E+00  0.00000000E+00
  0.00000000E+00  0.00000000E+00  0.00000000E+00
  0.00000000E+00  0.00000000E+00  0.00000000E+00
  0.00000000E+00  0.00000000E+00  0.00000000E+00
  0.00000000E+00  0.00000000E+00  0.00000000E+00
  0.00000000E+00  0.00000000E+00  0.00000000E+00
  0.00000000E+00  0.00000000E+00  0.00000000E+00
  0.00000000E+00  0.00000000E+00  0.00000000E+00
  0.00000000E+00  0.00000000E+00  0.00000000E+00
  0.00000000E+00  0.00000000E+00  0.00000000E+00
  0.00000000E+00  0.00000000E+00  0.00000000E+00
  0.00000000E+00  0.00000000E+00  0.00000000E+00
  0.00000000E+00  0.00000000E+00  0.00000000E+00
  0.00000000E+00  0.00000000E+00  0.00000000E+00
  0.00000000E+00  0.00000000E+00  0.00000000E+00
  0.00000000E+00  0.00000000E+00  0.00000000E+00
  0.00000000E+00  0.00000000E+00  0.00000000E+00
  0.00000000E+00  0.00000000E+00  0.00000000E+00
  0.00000000E+00  0.00000000E+00  0.00000000E+00
  0.00000000E+00  0.00000000E+00  0.00000000E+00
  0.00000000E+00  0.00000000E+00  0.00000000E+00
  0.00000000E+00  0.00000000E+00  0.00000000E+00
  0.00000000E+00  0.00000000E+00  0.00000000E+00
  0.00000000E+00  0.00000000E+00  0.00000000E+00
  0.00000000E+00  0.00000000E+00  0.00000000E+00
  0.00000000E+00  0.00000000E+00  0.00000000E+00
  0.00000000E+00  0.00000000E+00  0.00000000E+00
  0.00000000E+00  0.00000000E+00  0.00000000E+00
  0.00000000E+00  0.00000000E+00  0.00000000E+00
  0.00000000E+00  0.00000000E+00  0.00000000E+00
  0.00000000E+00  0.00000000E+00  0.00000000E+00
  0.00000000E+00  0.00000000E+00  0.00000000E+00
  0.00000000E+00  0.00000000E+00  0.00000000E+00
  0.00000000E+00  0.00000000E+00  0.00000000E+00
  0.00000000E+00  0.00000000E+00  0.00000000E+00
  0.00000000E+00  0.00000000E+00  0.00000000E+00
  0.00000000E+00  0.00000000E+00  0.00000000E+00
  0.00000000E+00  0.00000000E+00  0.00000000E+00
  0.00000000E+00  0.00000000E+00  0.00000000E+00
  0.00000000E+00  0.00000000E+00  0.00000000E+00
  0.00000000E+00  0.00000000E+00  0.00000000E+00
  0.00000000E+00  0.00000000E+00  0.00000000E+00
  0.00000000E+00  0.00000000E+00  0.00000000E+00
  0.00000000E+00  0.00000000E+00  0.00000000E+00
  0.00000000E+00  0.00000000E+00  0.00000000E+00
  0.00000000E+00  0.00000000E+00  0.00000000E+00
  0.00000000E+00  0.00000000E+00  0.00000000E+00
  0.00000000E+00  0.00000000E+00  0.00000000E+00
  0.00000000E+00  0.00000000E+00  0.00000000E+00
  0.00000000E+00  0.00000000E+00  0.00000000E+00
  0.00000000E+00  0.00000000E+00  0.00000000E+00
  0.00000000E+00  0.00000000E+00  0.00000000E+00
  0.00000000E+00  0.00000000E+00  0.00000000E+00
  0.00000000E+00  0.00000000E+00  0.00000000E+00
  0.00000000E+00  0.00000000E+00  0.00000000E+00
  0.00000000E+00  0.00000000E+00  0.00000000E+00
