Si C  H                                 
    1.000000000000000     
     7.3977061587274902   -0.0840581939276157   -0.1624365319955172
     0.7561893734593811    7.6365933222940310   -0.0939332141070701
     2.9469676353263057   -0.3290540247383660   16.0898435147546124
  Si              C               H             
     2    44    54
Direct
  0.2514932072327385  0.7053249040805443  0.3239972951851668
  0.7485067927672782  0.2946750959194355  0.6760027048148382
  0.4513284340085640  0.9393809758069410  0.0821421481343332
  0.5486715659914380  0.0606190241930731  0.9178578518656566
  0.3203251570592069  0.0468082537230695  0.0456939311373796
  0.6796748429407499  0.9531917462769490  0.9543060688626104
  0.1427457431866752  0.0951315027834827  0.0888747750891498
  0.8572542568133430  0.9048684972165324  0.9111252249108477
  0.0120678578235099  0.1973476574886779  0.0537200756302210
  0.9879321421765036  0.8026523425113297  0.9462799243697710
  0.8325529905325033  0.2474514103707199  0.0981991673118911
  0.1674470094675143  0.7525485896292778  0.9018008326881061
  0.7058056385875439  0.3460938777577101  0.0616889228539152
  0.2941943614125047  0.6539061222422815  0.9383110771460966
  0.7506678825175488  0.3990776868733146  0.9783698885360761
  0.2493321174824511  0.6009223131266773  0.0216301114639515
  0.9213702293425616  0.3540430467329961  0.9335610982567831
  0.0786297706574247  0.6459569532670353  0.0664389017432110
  0.0583156032506844  0.2527354807002182  0.9692555095137287
  0.9416843967493037  0.7472645192997986  0.0307444904862875
  0.2346021968150939  0.2069290150269366  0.9261511430526888
  0.7653978031849229  0.7930709849730886  0.0738488569473222
  0.3684377073198805  0.1065678910846234  0.9619876700333952
  0.6315622926801298  0.8934321089153602  0.0380123299666056
  0.3984879186200637  0.8720749163724866  0.1611815366675502
  0.6015120813799369  0.1279250836274847  0.8388184633324089
  0.3457662315110770  0.8076213169511223  0.2281288089142147
  0.6542337684889146  0.1923786830489169  0.7718711910858049
  0.3297678800745942  0.4617030655847786  0.3149540605388850
  0.6702321199254152  0.5382969344151988  0.6850459394611210
  0.2446717283230387  0.3671188532365277  0.2491631698309276
  0.7553282716769816  0.6328811467634629  0.7508368301690410
  0.5400668804312760  0.4286192075820025  0.2984750504021068
  0.4599331195687056  0.5713807924180551  0.7015249495978869
  0.3516851537723115  0.8115903512660213  0.4105484332035368
  0.6483148462277109  0.1884096487339705  0.5894515667964508
  0.3207978295286920  0.7172386220724438  0.4928184059853270
  0.6792021704713266  0.2827613779275654  0.5071815940146759
  0.2919181938108266  0.0076784532103452  0.4227483026984493
  0.7080818061891800  0.9923215467896613  0.5772516973015557
  0.9907657899273822  0.7352252491771601  0.3330812884943586
  0.0092342100725950  0.2647747508228211  0.6669187115056119
  0.8985120498549285  0.6487896724078841  0.4108242272148504
  0.1014879501450776  0.3512103275921148  0.5891757727851246
  0.9081094342184397  0.9238883484542753  0.3262892536756160
  0.0918905657815552  0.0761116515457233  0.6737107463243878
  0.1067475819178865  0.0494419171847654  0.1516128885196026
  0.8932524180821001  0.9505580828152324  0.8483871114804056
  0.7981015242481170  0.2042312947658315  0.1615653079521764
  0.2018984757518690  0.7957687052341829  0.8384346920478513
  0.5691467161112663  0.3828545295115184  0.0963361297303452
  0.4308532838887350  0.6171454704884846  0.9036638702696451
  0.6478100631009220  0.4772100071546138  0.9505024888817752
  0.3521899368990974  0.5227899928453653  0.0494975111182492
  0.9556859982728767  0.3957588366119608  0.8699809404748755
  0.0443140017271377  0.6042411633880383  0.1300190595251044
  0.2709409668512855  0.2498432999318249  0.8628249647969818
  0.7290590331487077  0.7501567000681700  0.1371750352030175
  0.2796861072277959  0.4080995779094636  0.3759197486327184
  0.7203138927721683  0.5919004220905122  0.6240802513672753
  0.2796441392965664  0.4236595365277637  0.1878927524675781
  0.7203558607034503  0.5763404634722276  0.8121072475323960
  0.0939480371482661  0.3736261073122201  0.2637172646994017
  0.9060519628517444  0.6263738926878000  0.7362827353005893
  0.2962732658956484  0.2277475782504232  0.2429576475498191
  0.7037267341043542  0.7722524217495427  0.7570423524501901
  0.5829914973731126  0.2871144985047538  0.2938180414741905
  0.4170085026268738  0.7128855014952286  0.7061819585257996
  0.6039556897437790  0.4841782149536119  0.3478778336265963
  0.3960443102562335  0.5158217850463724  0.6521221663734214
  0.5981083311242783  0.4858809686653148  0.2398959335030727
  0.4018916688756933  0.5141190313347015  0.7601040664969112
  0.5008089744331112  0.7979167881190691  0.3867868919588250
  0.4991910255668917  0.2020832118809514  0.6132131080411620
  0.3977411502385467  0.7721121306264325  0.5379212124986446
  0.6022588497614259  0.2278878693735671  0.4620787875013649
  0.3638437225611034  0.5765260223845359  0.4855403812476639
  0.6361562774388637  0.4234739776154495  0.5144596187523448
  0.1751484506450233  0.7311599429137662  0.5211725803771884
  0.8248515493549857  0.2688400570862289  0.4788274196228466
  0.1444796207784033  0.0307226925064782  0.4473992917994839
  0.8555203792216178  0.9692773074934992  0.5526007082005103
  0.3171614545042432  0.0776982416482745  0.3645221696664216
  0.6828385454957326  0.9223017583517353  0.6354778303335955
  0.3657711203427912  0.0679805894650423  0.4675587457477576
  0.6342288796571500  0.9320194105349546  0.5324412542522395
  0.9645229431284303  0.6603916286830039  0.2785781801867958
  0.0354770568715763  0.3396083713169992  0.7214218198132110
  0.9482659149994689  0.5101349523252976  0.4131335893524924
  0.0517340850005445  0.4898650476746862  0.5868664106474865
  0.7485181770193549  0.6555564993987431  0.4134727621692776
  0.2514818229806280  0.3444435006012592  0.5865272378307409
  0.9230951945820985  0.7142673347397563  0.4676546932723973
  0.0769048054179187  0.2857326652602558  0.5323453067276194
  0.9809609126586524  0.9892015977278980  0.2732293050291748
  0.0190390873413332  0.0107984022720975  0.7267706949708053
  0.9131686084863624  0.0033071196596114  0.3821058307723146
  0.0868313915136555  0.9966928803403733  0.6178941692276710
  0.7626362809213220  0.9267617140463694  0.3185016060567356
  0.2373637190786554  0.0732382859536482  0.6814983939432685
 
  0.00000000E+00  0.00000000E+00  0.00000000E+00
  0.00000000E+00  0.00000000E+00  0.00000000E+00
  0.00000000E+00  0.00000000E+00  0.00000000E+00
  0.00000000E+00  0.00000000E+00  0.00000000E+00
  0.00000000E+00  0.00000000E+00  0.00000000E+00
  0.00000000E+00  0.00000000E+00  0.00000000E+00
  0.00000000E+00  0.00000000E+00  0.00000000E+00
  0.00000000E+00  0.00000000E+00  0.00000000E+00
  0.00000000E+00  0.00000000E+00  0.00000000E+00
  0.00000000E+00  0.00000000E+00  0.00000000E+00
  0.00000000E+00  0.00000000E+00  0.00000000E+00
  0.00000000E+00  0.00000000E+00  0.00000000E+00
  0.00000000E+00  0.00000000E+00  0.00000000E+00
  0.00000000E+00  0.00000000E+00  0.00000000E+00
  0.00000000E+00  0.00000000E+00  0.00000000E+00
  0.00000000E+00  0.00000000E+00  0.00000000E+00
  0.00000000E+00  0.00000000E+00  0.00000000E+00
  0.00000000E+00  0.00000000E+00  0.00000000E+00
  0.00000000E+00  0.00000000E+00  0.00000000E+00
  0.00000000E+00  0.00000000E+00  0.00000000E+00
  0.00000000E+00  0.00000000E+00  0.00000000E+00
  0.00000000E+00  0.00000000E+00  0.00000000E+00
  0.00000000E+00  0.00000000E+00  0.00000000E+00
  0.00000000E+00  0.00000000E+00  0.00000000E+00
  0.00000000E+00  0.00000000E+00  0.00000000E+00
  0.00000000E+00  0.00000000E+00  0.00000000E+00
  0.00000000E+00  0.00000000E+00  0.00000000E+00
  0.00000000E+00  0.00000000E+00  0.00000000E+00
  0.00000000E+00  0.00000000E+00  0.00000000E+00
  0.00000000E+00  0.00000000E+00  0.00000000E+00
  0.00000000E+00  0.00000000E+00  0.00000000E+00
  0.00000000E+00  0.00000000E+00  0.00000000E+00
  0.00000000E+00  0.00000000E+00  0.00000000E+00
  0.00000000E+00  0.00000000E+00  0.00000000E+00
  0.00000000E+00  0.00000000E+00  0.00000000E+00
  0.00000000E+00  0.00000000E+00  0.00000000E+00
  0.00000000E+00  0.00000000E+00  0.00000000E+00
  0.00000000E+00  0.00000000E+00  0.00000000E+00
  0.00000000E+00  0.00000000E+00  0.00000000E+00
  0.00000000E+00  0.00000000E+00  0.00000000E+00
  0.00000000E+00  0.00000000E+00  0.00000000E+00
  0.00000000E+00  0.00000000E+00  0.00000000E+00
  0.00000000E+00  0.00000000E+00  0.00000000E+00
  0.00000000E+00  0.00000000E+00  0.00000000E+00
  0.00000000E+00  0.00000000E+00  0.00000000E+00
  0.00000000E+00  0.00000000E+00  0.00000000E+00
  0.00000000E+00  0.00000000E+00  0.00000000E+00
  0.00000000E+00  0.00000000E+00  0.00000000E+00
  0.00000000E+00  0.00000000E+00  0.00000000E+00
  0.00000000E+00  0.00000000E+00  0.00000000E+00
  0.00000000E+00  0.00000000E+00  0.00000000E+00
  0.00000000E+00  0.00000000E+00  0.00000000E+00
  0.00000000E+00  0.00000000E+00  0.00000000E+00
  0.00000000E+00  0.00000000E+00  0.00000000E+00
  0.00000000E+00  0.00000000E+00  0.00000000E+00
  0.00000000E+00  0.00000000E+00  0.00000000E+00
  0.00000000E+00  0.00000000E+00  0.00000000E+00
  0.00000000E+00  0.00000000E+00  0.00000000E+00
  0.00000000E+00  0.00000000E+00  0.00000000E+00
  0.00000000E+00  0.00000000E+00  0.00000000E+00
  0.00000000E+00  0.00000000E+00  0.00000000E+00
  0.00000000E+00  0.00000000E+00  0.00000000E+00
  0.00000000E+00  0.00000000E+00  0.00000000E+00
  0.00000000E+00  0.00000000E+00  0.00000000E+00
  0.00000000E+00  0.00000000E+00  0.00000000E+00
  0.00000000E+00  0.00000000E+00  0.00000000E+00
  0.00000000E+00  0.00000000E+00  0.00000000E+00
  0.00000000E+00  0.00000000E+00  0.00000000E+00
  0.00000000E+00  0.00000000E+00  0.00000000E+00
  0.00000000E+00  0.00000000E+00  0.00000000E+00
  0.00000000E+00  0.00000000E+00  0.00000000E+00
  0.00000000E+00  0.00000000E+00  0.00000000E+00
  0.00000000E+00  0.00000000E+00  0.00000000E+00
  0.00000000E+00  0.00000000E+00  0.00000000E+00
  0.00000000E+00  0.00000000E+00  0.00000000E+00
  0.00000000E+00  0.00000000E+00  0.00000000E+00
  0.00000000E+00  0.00000000E+00  0.00000000E+00
  0.00000000E+00  0.00000000E+00  0.00000000E+00
  0.00000000E+00  0.00000000E+00  0.00000000E+00
  0.00000000E+00  0.00000000E+00  0.00000000E+00
  0.00000000E+00  0.00000000E+00  0.00000000E+00
  0.00000000E+00  0.00000000E+00  0.00000000E+00
  0.00000000E+00  0.00000000E+00  0.00000000E+00
  0.00000000E+00  0.00000000E+00  0.00000000E+00
  0.00000000E+00  0.00000000E+00  0.00000000E+00
  0.00000000E+00  0.00000000E+00  0.00000000E+00
  0.00000000E+00  0.00000000E+00  0.00000000E+00
  0.00000000E+00  0.00000000E+00  0.00000000E+00
  0.00000000E+00  0.00000000E+00  0.00000000E+00
  0.00000000E+00  0.00000000E+00  0.00000000E+00
  0.00000000E+00  0.00000000E+00  0.00000000E+00
  0.00000000E+00  0.00000000E+00  0.00000000E+00
  0.00000000E+00  0.00000000E+00  0.00000000E+00
  0.00000000E+00  0.00000000E+00  0.00000000E+00
  0.00000000E+00  0.00000000E+00  0.00000000E+00
  0.00000000E+00  0.00000000E+00  0.00000000E+00
  0.00000000E+00  0.00000000E+00  0.00000000E+00
  0.00000000E+00  0.00000000E+00  0.00000000E+00
  0.00000000E+00  0.00000000E+00  0.00000000E+00
  0.00000000E+00  0.00000000E+00  0.00000000E+00
